src/Input/testPropLogicFile06.cnf
p cnf 15 30
1 0
-4 5 0
-4 6 0
-5 -6 4 0
-3 -4 7 0
4 3 0
-7 3 0
-10 5 0
-10 6 0
-5 -6 10 0
-9 -10 11 0
10 9 0
-11 9 0
-8 -9 0
8 9 0
-2 -3 8 0
-2 -8 3 0
3 8 2 0
-8 -8 2 0
-14 -7 0
14 7 0
-15 -11 0
15 11 0
-13 14 15 0
-14 13 0
-15 13 0
-12 -13 0
12 13 0
-1 2 0
-1 12 0
-2 -12 1 0
