src/Input/testPropLogicFile06.txt
(((P AND Q) -> R) <-> NOT (( P AND  Q) -> F)) AND NOT (NOT R OR NOT F)